% seed = 0

mint = 17;
% maxt = 42;

nActs = 22;
dur = [0,1,2,3,2,2,3,2,1,2,1,2,2,1,4,2,3,1,3,2,3,0];

nSkills = 5;
sreq = [| 0,0,0,0,0,
	| 1,1,1,1,1,
	| 1,0,0,0,1,
	| 1,1,0,1,1,
	| 2,1,1,0,0,
	| 0,1,1,0,0,
	| 1,0,1,1,1,
	| 1,2,1,1,1,
	| 0,1,2,0,1,
	| 0,2,0,1,0,
	| 0,2,2,0,0,
	| 0,0,1,0,0,
	| 2,1,0,1,2,
	| 1,0,0,1,2,
	| 0,0,2,1,1,
	| 2,1,1,0,0,
	| 1,1,1,0,1,
	| 0,1,2,1,0,
	| 2,1,2,0,1,
	| 2,0,1,1,2,
	| 0,0,0,1,2,
	| 0,0,0,0,0, |];

% SumOfsreq = 80;

nResources = 8;
mastery = [| false,false,true,true,false,
	| true,false,false,true,false,
	| false,true,true,false,false,
	| true,false,false,false,true,
	| false,true,true,false,false,
	| false,true,false,false,true,
	| true,false,false,true,false,
	| false,false,true,false,true, |];

nPrecs = 40;
pred = [1,1,1,2,2,2,3,3,3,4,4,4,5,5,5,6,6,6,7,7,8,8,9,10,11,11,12,13,14,14,14,15,15,16,16,17,18,19,20,21];
succ = [2,3,4,13,6,16,19,12,15,10,5,8,9,18,7,17,18,19,17,12,9,13,21,11,12,14,13,20,19,15,16,17,20,18,21,21,20,22,22,22];

nUnrels = 97;
unpred = [2,2,2,2,2,2,2,2,2,2,2,3,3,3,3,3,3,3,3,3,3,3,4,5,5,5,5,5,5,5,5,6,6,6,6,6,6,6,6,6,6,7,7,7,7,7,7,7,7,7,8,8,8,8,8,8,8,8,8,9,9,9,9,9,9,9,9,9,9,9,12,12,12,12,12,12,12,13,13,13,13,13,13,13,15,15,15,16,16,17,17,17,18,18,19,19,20];
unsucc = [3,4,5,7,8,9,10,11,12,14,15,4,5,6,7,8,9,10,11,14,16,18,6,6,8,10,11,14,15,16,19,7,8,9,10,11,12,13,14,15,16,8,9,10,11,14,15,16,18,19,10,11,12,14,15,16,17,18,19,10,11,12,13,14,15,16,17,18,19,20,14,15,16,17,18,19,21,14,15,16,17,18,19,21,16,18,19,17,19,18,19,20,19,21,20,21,21];

USEFUL_RES = [{},
	{1,2,3,4,5,6,7,8},
	{2,4,6,7,8},
	{1,2,3,4,5,6,7,8},
	{1,2,3,4,5,6,7,8},
	{1,3,5,6,8},
	{1,2,3,4,5,6,7,8},
	{1,2,3,4,5,6,7,8},
	{1,3,4,5,6,8},
	{1,2,3,5,6,7},
	{1,3,5,6,8},
	{1,3,5,8},
	{1,2,3,4,5,6,7,8},
	{1,2,4,6,7,8},
	{1,2,3,4,5,6,7,8},
	{1,2,3,4,5,6,7,8},
	{1,2,3,4,5,6,7,8},
	{1,2,3,5,6,7,8},
	{1,2,3,4,5,6,7,8},
	{1,2,3,4,5,6,7,8},
	{1,2,4,6,7,8},
	{}];

POTENTIAL_ACT = [{2,4,5,6,7,8,9,10,11,12,13,14,15,16,17,18,19,20,21},
	{2,3,4,5,7,8,10,13,14,15,16,17,18,19,20,21},
	{2,4,5,6,7,8,9,10,11,12,13,15,16,17,18,19,20},
	{2,3,4,5,7,8,9,13,14,15,16,17,19,20,21},
	{2,4,5,6,7,8,9,10,11,12,13,15,16,17,18,19,20},
	{2,3,4,5,6,7,8,9,10,11,13,14,15,16,17,18,19,20,21},
	{2,3,4,5,7,8,10,13,14,15,16,17,18,19,20,21},
	{2,3,4,5,6,7,8,9,11,12,13,14,15,16,17,18,19,20,21}];
